120
150
80
36
27
21
34
98
72
29
49
57
57
36
24
33
92
41
48
28
33
58
31
61
34
36
86
64
20
92
36
29
30
36
98
51
83
53
38
38
41
33
53
97
29
34
90
60
63
47
82
64
74
76
47
34
98
51
77
41
32
97
30
53
97
95
29
82
63
75
64
57
72
39
27
84
82
39
40
70
55
95
81
81
92
58
29
98
79
94
29
58
92
81
86
80
72
83
29
38
36
82
51
98
82
29
39
82
82
40
28
49
98
57
93
63
87
64
86
82
98
47
